 # Version information for this restart file 
 # current date 2015-12-14 16:51:37.574
 # current working dir /scratch/daint/lucamar/cp2k/gpu
 # Program compiled at                            lun_14_dic_2015,_16.00.20,_CET
 # Program compiled on                                                  daint101
 # Program compiled for                                     Linux-x86-64-CrayGNU
 # Source code revision number                                         svn:15893
 &GLOBAL
   PRINT_LEVEL  LOW
   PROJECT_NAME H2O-256
   RUN_TYPE  MD
   &TIMINGS  SILENT
     THRESHOLD     9.9999999999999995E-07
   &END TIMINGS
 &END GLOBAL
 &MOTION
   &MD
     ENSEMBLE  NVE
     STEPS  10
     TIMESTEP     4.9999999999999994E-01
     STEP_START_VAL  10
     TIME_START_VAL     4.9999999999999982E+00
     ECONS_START_VAL    -4.4029251471816187E+03
     TEMPERATURE     3.0000000000000000E+02
     &AVERAGES  T
       &RESTART_AVERAGES
         ITIMES_START  1
         AVECPU     5.5363471547700463E+01
         AVEHUGONIOT     0.0000000000000000E+00
         AVETEMP_BARO     0.0000000000000000E+00
         AVEPOT    -4.4044381721619884E+03
         AVEKIN     1.2446346464618832E+00
         AVETEMP     3.4161153172907979E+02
         AVEKIN_QM     0.0000000000000000E+00
         AVETEMP_QM     0.0000000000000000E+00
         AVEVOL     5.1861130364450299E+04
         AVECELL_A     3.7291855506365273E+01
         AVECELL_B     3.7291855506365273E+01
         AVECELL_C     3.7291855506365273E+01
         AVEALPHA     9.0000000000000000E+01
         AVEBETA     9.0000000000000000E+01
         AVEGAMMA     9.0000000000000000E+01
         AVE_ECONS    -9.9408619725471851E+01
         AVE_PRESS     0.0000000000000000E+00
         AVE_PXX     0.0000000000000000E+00
       &END RESTART_AVERAGES
     &END AVERAGES
   &END MD
 &END MOTION
 &FORCE_EVAL
   METHOD  QS
   &DFT
     BASIS_SET_FILE_NAME ./GTH_BASIS_SETS
     POTENTIAL_FILE_NAME ./POTENTIAL
     &SCF
       SCF_GUESS  ATOMIC
       &OT  T
         MINIMIZER  DIIS
       &END OT
       &PRINT
         &RESTART  OFF
         &END RESTART
       &END PRINT
     &END SCF
     &QS
       EPS_DEFAULT     9.9999999999999998E-13
       EXTRAPOLATION  PS
       EXTRAPOLATION_ORDER  3
     &END QS
     &MGRID
       CUTOFF     2.8000000000000000E+02
       REL_CUTOFF     3.0000000000000000E+01
     &END MGRID
     &XC
       DENSITY_CUTOFF     1.0000000000000000E-10
       GRADIENT_CUTOFF     1.0000000000000000E-10
       TAU_CUTOFF     1.0000000000000000E-10
       &XC_FUNCTIONAL  NO_SHORTCUT
         &PADE  T
         &END PADE
       &END XC_FUNCTIONAL
     &END XC
   &END DFT
   &SUBSYS
     &CELL
       A     1.9734000000000002E+01    0.0000000000000000E+00    0.0000000000000000E+00
       B     0.0000000000000000E+00    1.9734000000000002E+01    0.0000000000000000E+00
       C     0.0000000000000000E+00    0.0000000000000000E+00    1.9734000000000002E+01
       MULTIPLE_UNIT_CELL  1 1 1
     &END CELL
     &COORD
O    3.2831014787838821E+00    3.6749648175548990E+00    1.2248253711974691E+01
O    1.6091825168023497E+01    1.8365369004432763E+00    2.6621343829826629E+00
O    1.4425104819325348E+01    1.1152550378880235E+01    6.9415130641950560E+00
O    3.2415982523722136E+00   -1.1507635927377625E-02    5.9824257242712842E-01
O    7.7655409776893318E+00    2.9084338782234918E+00    1.4257248111167566E+00
O    1.5639717960490909E+01    1.2738097972536051E+01    4.9889895549024219E+00
O    5.6658956929668269E+00    6.7379366459715895E+00    4.2974601557929590E+00
O    8.6582720226280099E+00    1.1130429304626944E+01    1.6517776454676493E+01
O    1.6427070857388475E+01    6.5676921184387131E+00    1.4759287376619355E+01
O    9.7356209095424351E+00    8.8337810176977982E-01    1.3564565195232177E+01
O    1.1609396920890513E+01    1.4106877917215376E+01    1.7166365208252188E+01
O    2.3512705487738312E+00    1.4435460654682217E+01    1.4374206508535741E+01
O    6.8884873688598258E+00    1.8975550117055928E+01    2.3733987468549729E+00
O    1.7121441503122799E+01    7.9472171909558034E+00    1.8506640539453727E+01
O    3.1097235084582969E-01    1.9414849557606569E+01    1.0722114773356088E+01
O    3.3863810427710557E+00    1.5057201072771116E+01    1.6760251713351551E+01
O    4.1855438136931236E+00    1.2892410438587113E+01    1.3071890370077858E+01
O    1.3404869908884177E+01    2.5955009686744512E+00    3.0465415130035938E+00
O    1.1480242619491989E+01    7.7137873506823036E+00    8.1192176262560881E-02
O    1.5306190980931856E+01    4.8493661703475910E+00    1.6981220637527230E+01
O    1.8379086509432760E+01    2.0804464137452152E+00    1.3202563846225615E+01
O    4.9802825854858934E+00    6.0067983970709102E+00    1.7634952127063237E+01
O    7.5997205767247218E+00    6.3371590080957130E-01    1.0671420082576230E+01
O    3.0130374371582307E+00    1.5465159309974757E+01    5.8721018395463664E+00
O    7.5695523150402568E+00    9.3867894120977802E+00    1.2960475509495447E+01
O    1.5432843086170301E+01    1.9589167452383722E+00    8.1770989594972576E+00
O    1.5794586300491172E+01    1.8886098611750121E+01    1.3525519347376493E+01
O    1.1645561952777904E+01    1.1262527218974443E+01    8.4301535337193165E+00
O    1.0666247154954398E+01    1.6699114220207051E+01    4.5256948045619199E+00
O    1.4952934769521644E+00    7.1860341957457941E+00    1.8584756059568800E+01
O    9.2717712350619195E+00    7.9627264424620448E+00    1.4436623630512601E+01
O    7.0738482328082020E+00    4.8976646948504088E-01    1.4724861203654919E+01
O    1.1461112155423825E+01    7.3150000628811283E+00    1.0462753080055698E+01
O    1.2042696151470466E+01    1.2521604600846340E+01    9.7836398131781710E-01
O    9.4062753925246181E+00    1.2310294980529051E+00    5.1884389331445364E+00
O    1.3630716450093641E+00    1.9302277950830952E+01    3.8255253483170821E+00
O    7.8526724499071330E+00    3.1300391262756504E+00    1.5245843494950353E+01
O    8.3595226982368143E+00    1.1458790111724692E+01    1.1724368376076976E+01
O    1.0676355911512315E+01    1.0274265312084546E+01    3.4186904125475714E-01
O    3.4173896854298396E+00    1.0676929853094945E+01    9.6951047107177732E+00
O    7.2087790663565121E+00    1.3590008474827126E+01    1.6336877613053726E+01
O    2.8458695566405900E+00    9.4011499095230833E-01    1.3789911588190996E+01
O    1.8998882128915515E+01    6.4774868313079885E+00    1.7079652037882813E+01
O    4.1984496835206704E+00    2.8089544948201706E+00    9.9112332179997811E+00
O    5.4520485798068679E+00    7.2607885516698829E+00    1.1809340687315636E+01
O    1.9467362737791024E+01    1.7212654614656666E+00    4.2918687292721902E+00
O    3.4633024557575003E+00    1.4207445281055220E+00    2.7311379555986175E+00
O    1.4099382007496787E+01    3.3052294624005363E+00    1.5110277711016616E+01
O    1.5573093769052846E+01    1.8339340675691691E+00    1.3427859438394506E+01
O    1.2324651729444767E+01    2.3628836136131488E+00    1.0398705146761301E+01
O    1.6938673686122190E+01    1.6371038550548271E+01    1.1292435603466421E+01
O    1.7388430913185399E+01    1.8087513125199379E+01    5.0947079031363574E-01
O    6.1349494430157234E+00    9.1790584140548184E+00    5.5779285803239116E+00
O    1.2861122779479013E+01    1.6548851235869606E+01    7.8614143837536410E-01
O    1.8120140010781029E+01    1.2672383317289112E+01    5.8414428267990575E+00
O    1.0049151941225437E+01    9.3362720071660945E+00    9.2285383846879157E+00
O    6.8757307350859964E+00    1.2361084703476102E+01    5.3955177371687997E+00
O    3.6792386796534857E+00    1.8182313078459487E+01    1.1377140758469894E+01
O    9.6570728975007825E+00    5.1446034478640534E+00    1.4054566501238245E+01
O    1.4701633637638757E+01    1.9304840706763247E+01    7.3222413330116218E+00
O    4.6907340740020596E+00    3.5687472556197779E+00    1.4725412151751359E+01
O    4.4537986543165218E+00    1.2264363940538676E+01    1.6215357360238837E+01
O    2.9544043995705969E+00    3.5030348223076513E+00    4.6428776364164515E+00
O    1.7662078268657268E+01    1.1867064992035600E+01    1.6095051548767987E+01
O    3.8551133329001157E+00    1.2796041834888747E+01    2.9589618164141265E+00
O    1.5165801819380569E+00    3.4471068237824767E+00    1.7984106751376348E+01
O    1.7038945560614984E+01    2.4689500442974137E+00    1.7105110237147994E+01
O    1.9069015408282358E+01    1.8170644413845544E+01    2.5773436583908276E+00
O    1.8542185365507752E+01    1.5745812971013965E+01    5.3743654791102218E+00
O    1.6962472626447241E+01    4.7986930526175202E+00    1.2079808667369777E+01
O    1.8123301424523682E+01    8.0407819691366686E+00    8.9678870304510845E+00
O    1.1737075627433226E+01    1.5600153283552457E+01    1.0577487844815375E+01
O    6.5375969934135298E+00    1.6592403638286964E+01    6.8429455888438753E+00
O    4.7281766161370982E+00    1.7266129663975899E+01    1.7002293410228007E+00
O    1.5750829182219894E+01    1.6009306326770037E+01    1.5115982852252044E+01
O    1.4615783785379003E+01    8.4747167960748673E+00    5.9574567718873652E+00
O    1.7966303576301495E+01    1.9158007636528765E+01    6.7529100321906981E+00
O    1.7068218907819212E+01    1.9262246187003996E+01    4.2143861910668763E+00
O    6.4422550940486563E+00    1.4147045070111465E+01    1.3644524150721850E+01
O    8.6403031150792220E+00    6.0226798427695085E+00    5.7105752536258052E+00
O    3.6811961048213679E+00    1.3392651088697264E+01    1.0405790184433918E+01
O    1.0668650448144989E+01    4.2825992850767207E+00    1.9437554280820354E+01
O    1.2185220713613891E+01    1.4240778555472508E+01    3.2241119256168025E+00
O    1.9611003885709898E+01    1.7690676694663521E+00    1.5949594081623401E+01
O    1.4825714608089669E+01    1.5113924983986006E+01    3.5828269446924716E+00
O    1.8529426985226042E+01    1.8583227338236359E+00    7.8623576695230906E+00
O    1.9536550945920883E+01    1.6642636962554906E+01    1.6455704027328025E+01
O    1.1492194698847655E+00    1.2862331063088366E+01    2.5177911606136250E+00
O    1.7955675309522743E+01    1.7373706440631935E+01    1.4314489402788801E+01
O    1.9067995782552838E+01    1.9178593536551347E+01    1.7263205617057295E+01
O    1.3397718160717394E+01    3.9374876621296422E+00    1.8914233096818283E+01
O    1.9382350478024662E+01    9.2963787932361850E+00    2.1657368474255172E+00
O    1.0268402839230463E+01    1.6552249125239932E+01    1.6835751666427989E+00
O    8.5195196911139721E+00    3.1305780956078801E+00    1.1417505462116752E+01
O    9.3051795233627512E+00    1.9294500315320022E+01    3.0663598740271696E+00
O    2.6297544184736195E+00    1.1556391729148759E+01    7.3747013028057244E+00
O    6.5046357694771570E+00    1.6955560597197078E+01    1.5179081284646902E+01
O    1.0815261994826967E+01    1.8649741741816875E+01    1.6474242574739577E+01
O    1.4281734446557728E+01    6.2423317938301279E+00    1.0340064419160329E+01
O    6.4671696719016465E+00    1.0011493114364564E+01    1.5344169107896112E+01
O    1.7404647458946254E+01    1.5457079384235977E+01    4.7881551537412526E-02
O    8.4100748970531960E+00    1.0417889754344799E+01    6.7580326174516552E+00
O    4.3528941033180448E+00    1.6002283159302280E+01    9.8336405648510627E+00
O    1.6619105365446032E+01    1.6645953601231632E+01    7.0577914197842055E+00
O    1.2249407954709902E+01    7.9303379109768715E+00    4.8197098172129076E+00
O    3.7757982594138800E-01    1.4913909240965804E+01    1.8818273418351087E+01
O    5.1368444335267363E+00    1.6837421096771848E+01    1.7752764193547549E+01
O    5.1132515315747078E+00    6.5803538207144108E+00    7.7118384489250114E-01
O    1.8896628447061477E+01    1.7402049743038713E+01    9.1817483289346722E+00
O    5.3009955622040668E+00    1.9593715854613702E+01    1.2751037828287716E+01
O    1.3952505103386931E+01    1.3711487727436614E+01    1.3563764323592920E+01
O    1.4624461311817994E+01    8.8450574133166597E+00    1.1830495888107247E+01
O    6.3094262508294303E+00    1.9562939137522942E+01    1.7242718221920381E+01
O    1.4512676749876119E+01    1.8114367238675381E+01    1.6485076020481131E+01
O    1.6295734478675133E+01    1.2007463579988931E+01    4.3913111347028261E-01
O    1.2922955980247801E+01    1.9066154288320135E+01    1.5484692030556653E+00
O    9.0236020206575525E+00    7.0332426373544861E+00    1.9383270879215431E+01
O    9.8441969934029103E+00    8.3778034428565569E+00    6.4271692585618698E+00
O    6.5957322395925395E+00    4.5576004883544412E+00    1.2770909158545479E+01
O    1.6393465030009960E+01    1.8485517976568815E+01    9.4834859527353661E+00
O    5.8212206508525810E+00    1.1048134226699416E+01    4.7125080530679403E-01
O    1.2572910091251162E+01    1.8469212575805280E+01    4.1816977270717217E+00
O    1.0799037853147663E+01    4.9258702941333228E+00    1.6391011537832753E+01
O    6.0532206840766056E+00    1.5302672078755949E+01    7.6887483928658040E-01
O    1.0143186075661596E+01    1.6774586971830256E+01    8.7347737392687534E+00
O    2.5876079500353470E+00    1.7469680983707786E+01    7.8279021645246116E+00
O    2.3552399126078085E+00    4.1209327583299871E+00    8.0269051562810194E+00
O    1.6274950146485345E+00    1.5826984404844966E+00    7.2074375522654952E+00
O    1.4237042223388846E+01    1.8205040900564203E+01    1.1249303755183101E+01
O    8.3774996391773442E+00    1.4708906139955660E+01    8.4665228889275923E+00
O    7.2055112306581695E+00    1.0773197272642694E+01    9.1601962135767998E+00
O    4.4955107534185865E+00    3.4605385072137644E+00    1.8758733025879184E+01
O    1.4994606830430259E+01    1.0314721032204123E+01    9.5398217863342634E+00
O    1.5574854987838194E+01    1.3521152975925586E+01    1.6847812759392294E+01
O    1.7812601173518928E+01    9.3837012180061752E-01    1.0399595324970523E+01
O    1.5134133222069458E+01    1.5605439305890405E+01    9.2013997147470494E+00
O    1.2960672200035874E+00    4.8463986924517908E+00    3.0607304280557877E+00
O    1.3482363341276933E+01    7.4692154367951273E+00    1.4300971486311987E+01
O    7.7966344936533556E+00    1.0329213310239849E+01    3.7312997279074263E+00
O    1.5433382844457730E+01    7.9295184929259053E+00    8.3360437464252399E+00
O    4.1021245601261302E+00    6.6347426381117467E+00    8.5264719471800667E+00
O    5.4518052802090660E+00    8.9417044964280521E+00    9.7393409615933049E+00
O    1.8595029590773557E+01    4.2839292123431134E+00    1.8471905765365307E+01
O    5.1784121245577197E-01    9.8550432880592087E+00    1.9393311450293425E+01
O    8.5108905741644669E+00    1.6504488802780536E+01    1.9299876314016799E+01
O    1.0548634278512194E+01    1.1345416541955764E+01    4.3583923854047191E+00
O    1.1169159508500176E+01    1.1520468769385927E+01    1.2512755151984511E+01
O    6.4955758053274089E+00    5.9628886458143073E+00    1.5402127444734878E+01
O    4.6669302096673180E+00    1.3228948166042256E+01    6.6899355035052404E+00
O    6.3971306670115320E+00    1.3139786907411395E+01    8.8796170628728497E+00
O    1.4394383196845160E+01    1.0867515895097638E+01    1.3977835196297249E+01
O    1.2434371231043867E+01    1.7963032093592968E+01    7.7869496893936390E+00
O    1.4990980248306791E+01    1.4745386981430711E+01    1.9164248761020332E+01
O    1.9009429136381339E+01    1.4576605136363886E+01    1.2573109030653335E+01
O    1.3676012539846569E+01    1.0874281737193275E+01    1.6701215267563882E+01
O    1.8219873562133252E+01    4.4496397413198903E+00    7.3307055117334787E+00
O    1.9458310166155822E+01    4.6308195751704195E+00    1.1175560634391383E+01
O    5.5458473258045098E+00    4.4093620705900932E-01    8.3165958079386826E+00
O    6.5033759015706103E+00    1.4370630319630175E+01    3.2305191418715351E+00
O    1.2237695651338941E+01    1.3002733051103240E+01    1.0586723662824626E+01
O    4.1094514507231388E+00    9.9227333352306140E+00    1.3138610602976497E+01
O    8.5513101636246862E+00    5.5071384757698079E+00    1.8365046303592958E+00
O    1.4804858562061192E+01    4.9339171589280033E+00    3.6246227021792294E+00
O    6.2338691770541015E+00    1.9356156672204367E+01    5.5356172647082529E+00
O    1.1319391569775876E+01    1.6627937036739451E+00    8.0432187887657651E+00
O    1.6524707524688534E+01    1.9679986199700920E+01    1.7993385115503646E+01
O    3.5473232608638376E+00    1.0311722076367815E+01    1.8934953798138213E+01
O    6.4985738947587031E+00    1.6115577516801896E+01    1.1633630185728041E+01
O    7.5222792950722797E+00    8.0960623195348997E+00    1.8562895460784403E+00
O    7.3642888608127315E+00    2.9494010885563013E+00    5.3621128736991883E+00
O    1.4797370371645446E+01    1.3528467765135741E+01    1.1063675744484938E+01
O    1.8942075938774884E+01    3.1170056075659356E+00    2.1249121237782500E+00
O    8.8296945511108405E+00    1.8167914643551939E+01    6.0796838237753219E+00
O    1.6672637099698289E+01    8.4603724158626878E+00    3.9586190779515129E+00
O    1.3100122633613104E+01    1.0467915840764247E+01    3.2411623622761794E+00
O    8.7861184549600289E+00    5.1317683385580342E+00    8.2669147216350574E+00
O    8.3991801023669552E+00    7.7624041178527561E+00    1.6958604809766239E+01
O    2.6410382605629641E+00    7.7154420578687342E+00    6.2014220469724828E+00
O    1.3359505336071376E+01    6.8150564829389246E+00    1.7983858112819209E+00
O    8.1024334164775400E+00    1.0322775671716688E+01    1.9162829202708764E+01
O    8.3697360679711572E+00    1.4088716710717161E+01    1.1871099966197256E+01
O    6.5024019420374457E-01    5.5010018148498592E+00    5.7546279776395899E+00
O    5.1267752174719350E-01    7.5800384435339483E+00    1.1594928753218456E+01
O    1.3109911727372330E+01    1.9675091278401322E+01    1.4734685973613454E+01
O    3.3816725528994080E+00    1.5425634022746072E+01    3.0642685126647704E+00
O    1.9599662441698822E+01    8.2118708793981643E+00    1.4667357108669473E+01
O    1.2383094695416037E+01    1.1259613982992367E+00    5.1522834002981721E+00
O    1.7112457068396257E+01    2.4419335869231396E+00    5.6514038894243290E+00
O    8.9269484970854602E+00    1.9230730552852155E+01    1.8380938314256248E+01
O    1.9455439785953416E+01    1.1144673406886485E+01    4.2323045734814242E+00
O    1.4909872858136135E+00    1.6672184861015754E+01    1.4673864318064014E+00
O    2.4191733003935192E+00    6.7555784118028797E+00    1.6274492220031300E+00
O    1.4542460535589333E+01    8.8848482968793991E+00    1.8232339623272033E+01
O    3.0558266996666097E+00    6.0236404499241019E+00    1.0933720241284984E+01
O    9.5506806671068052E+00    1.9454050056558643E+01    8.3168811157389158E+00
O    1.3164597137895502E+01    1.5321367142840517E+01    7.2501135057998933E+00
O    3.5303945887014603E+00    8.1932185388742518E+00    1.7090368983999092E+01
O    1.0430216644029933E+00    9.7848464853425572E+00    1.0038707949890398E+01
O    9.5451142078165574E-01    9.7067757197655187E+00    6.8308699339970893E+00
O    1.1035197629188261E+01    2.0043557623571084E+00    1.5817773731579823E+01
O    5.6612188417940850E+00    1.3218789225881700E+01    1.8684645465881360E+01
O    6.5957594176829515E-01    1.9011653598678048E+01    1.2020271458093902E-01
O    9.1214363722104022E+00    1.3446217740782251E+01    3.2043675550194859E+00
O    1.6650595779946951E+01    1.1461858038637276E+01    1.1279784391535202E+01
O    2.5930578591225939E+00    8.9974981210895688E+00    3.3304644296841852E+00
O    9.5425210801092550E+00    1.6752731049630778E+01    1.5274349311785414E+01
O    5.7651489813590209E-02    1.9529884567806150E+01    1.3689149871621414E+01
O    1.1335217868484593E+00    1.3924826658112332E+01    7.2261180897163806E+00
O    4.3562288908703878E-01    1.7732339751239714E+01    5.9881682423311249E+00
O    9.6720149794266543E+00    1.2915690901664266E+01    7.0861567802149761E+00
O    5.8914767222673818E+00    1.6994280382652036E+01    4.2423972802637824E+00
O    1.9514501119830037E+01    1.3763873045704884E+01    1.5172924043799839E+01
O    4.2655308042383028E-01    5.6846464639974439E+00    8.8206220791544752E+00
O    1.3880413731952286E+01    4.1670815137349688E+00    7.4371471341551967E+00
O    1.4785026582871401E+01    2.9293483524060386E+00    1.0895461978429697E+01
O    2.6630205387644295E+00    5.2775388726477612E-01    9.6322337897974872E+00
O    1.1574129055216797E+01    8.8157968877858952E+00    1.3091543313271035E+01
O    2.6446002360782672E+00    4.8497594113244151E+00    1.5771617171736583E+01
O    6.7415807032337396E+00    3.3798639874168752E+00    7.9904864363196042E+00
O    1.0566863537643156E+01    4.9491389580486196E+00    4.1562417227690505E+00
O    1.3883025473183990E+01    1.0431041266743554E+01    4.9289892531153906E-01
O    1.7629774862584060E+01    7.3271150794490003E+00    1.4102742563536506E+00
O    2.7914989562050665E+00    7.6831292326515621E+00    1.4392745939808727E+01
O    1.8001320242096753E+01    1.5058215655972162E+01    2.8266055573414990E+00
O    9.2913978971076343E+00    1.4990499166795434E+01    1.7230886313976555E+01
O    9.5766799240170286E+00    1.8225312649402959E+01    1.1004266536406300E+01
O    1.3578676998979779E+01    5.1461060970426349E+00    1.3145542078278634E+01
O    1.5968351641796572E+01    5.2159194569407461E+00    6.2128994942940770E+00
O    1.1319152924872910E+01    1.3609705742184440E+01    1.4493756488347735E+01
O    1.7374933438597349E+01    1.0216696613108978E+01    1.3917197012331632E+01
O    1.3406778522548712E+00    1.6112552752501596E+01    1.0109046552749975E+01
O    9.1095216719440231E+00    2.6847688758747705E+00    1.7682897834329719E+01
O    1.5216254175017230E+01    2.5531881063268752E-01    6.9167408414450193E-01
O    9.5903832616363227E-01    3.8497600994292194E+00    1.3670873817798425E+01
O    1.9679623389738872E+00    1.6744584038046998E+01    1.3074963137236146E+01
O    1.2333062577325265E+01    7.1149146993816839E+00    1.7129918367959000E+01
O    1.8304292933828055E+01    7.3058980331333494E+00    6.1581614944731777E+00
O    1.6847912650258102E+01    4.7191300278090349E+00    1.9984456290875694E+00
O    1.2018731388740633E+01    1.3229476133385520E+01    5.7214417603729197E+00
O    1.6015332042719951E+01    1.0906064263464650E+01    2.9890874796831919E+00
O    4.5940017548927745E+00    5.0809164134281408E+00    6.3135701673183817E+00
O    1.7975213391792970E+01    1.0750451414154233E+01    1.8452313095460994E+01
O    4.2949851380294559E+00    1.7705160266833946E+00    1.6823151783758572E+01
O    1.8515189041306304E+01    1.0947244643295884E+01    8.1747888913951634E+00
O    1.1150418356341287E+01    3.9810395331310664E+00    6.8375016252553538E+00
O    9.7023909979919165E-01    1.3423686920578227E+01    1.0434914930463693E+01
O    1.7172844267874179E+01    7.8251710731373780E+00    1.1639633205434849E+01
O    1.1132006543924890E+01    4.8575751255782142E+00    1.1798662931550536E+01
O    1.4962818290199127E+01    1.7477351344381596E+01    4.9878851292995590E+00
O    1.7699059518453251E+00    1.2444534430492400E+01    1.9571286898535291E+01
O    6.1101570063627975E+00    1.8867328208762895E+00    3.3926731378153709E+00
O    1.2306466859100601E+01    1.6824497773884345E-01    1.1889667919537311E+01
O    1.0531698248214582E+01    7.0047527794300801E-01    9.3081199080848176E-01
O    1.0003968445430043E+01    1.6200384426499351E+01    1.2722517200575497E+01
O    1.2371369291677667E+01    1.7271033153729473E+01    1.7921001882789916E+01
O    1.1103241216324552E+01    1.0125527903423862E+01    1.7417964299801174E+01
H    3.6614928741708170E+00    3.0287482942404047E+00    1.1496859667636633E+01
H    3.2873491674078399E+00    4.6284423162644446E+00    1.1800549104995889E+01
H    1.6709102816630391E+01    2.5779723258604528E+00    2.3399453171445241E+00
H    1.5174099380680431E+01    2.3072402585187493E+00    2.8458947725414698E+00
H    1.4627525924542969E+01    1.0901109823229763E+01    7.9606617798919208E+00
H    1.3432929761782656E+01    1.1348663804315052E+01    6.8867023169524000E+00
H    3.4961793382125950E+00    4.3045885094929626E-01   -2.6921091755264226E-01
H    2.2224220494463509E+00   -2.7862372808070907E-01    4.3342629065476795E-01
H    7.6944958235132930E+00    3.9273593215161702E+00    1.6767209757111086E+00
H    8.6813045730692995E+00    2.6992042695421019E+00    1.1110247929808361E+00
H    1.5303801562619224E+01    1.3714546000916128E+01    4.6535543886914708E+00
H    1.4922617804305531E+01    1.2465360876948413E+01    5.6856007917750118E+00
H    5.9104846772528576E+00    6.8999934172084343E+00    3.3335082241712968E+00
H    5.7663836974947671E+00    7.6646567181725400E+00    4.8059170731666727E+00
H    8.0483728505704910E+00    1.0520439846764321E+01    1.5903791406789830E+01
H    8.3774903073851785E+00    1.2086707381716058E+01    1.6237490666450611E+01
H    1.5563977695084299E+01    7.0338477211803969E+00    1.4397431904819959E+01
H    1.6865022622828423E+01    7.2715774210446016E+00    1.5306542157622090E+01
H    1.0635565549590865E+01    4.5988191184050597E-01    1.3651446049059063E+01
H    9.7823570725982005E+00    1.5824030801111169E+00    1.4329695108521044E+01
H    1.0499741978420126E+01    1.4308019399035036E+01    1.7248427514396006E+01
H    1.1862426089773152E+01    1.3520500839986687E+01    1.7931663289027618E+01
H    1.7540943831975648E+00    1.3733007639062937E+01    1.4808384278810145E+01
H    2.8515190707840352E+00    1.4839592867428404E+01    1.5229170254258316E+01
H    6.6027416458596759E+00    1.9959399254060390E+01    2.4122909087797955E+00
H    7.9074548123710775E+00    1.9045687689189901E+01    2.7351201395594491E+00
H    1.6979667551553639E+01    7.5105301628930485E+00    1.9434974847261387E+01
H    1.7809679213612338E+01    7.3178742388780966E+00    1.7935483704389775E+01
H   -5.1629185238238076E-02    1.8653494944175350E+01    1.0101668019963977E+01
H   -5.8691505202148286E-01    2.0004365785435880E+01    1.0732472998144976E+01
H    2.6195674700961233E+00    1.5232477667977326E+01    1.7367633132469397E+01
H    4.1762810659854441E+00    1.5731546115202971E+01    1.6909562401774991E+01
H    5.1130783492518237E+00    1.3320522088108270E+01    1.3357427493461115E+01
H    3.4530921366753033E+00    1.3518547742347714E+01    1.3468425157679592E+01
H    1.3313027991458174E+01    1.9777766293323662E+00    3.9114480053241971E+00
H    1.2675421699787234E+01    2.3983264622196279E+00    2.4105141656915783E+00
H    1.2264587906903738E+01    7.3474175049755530E+00    7.4821686697947687E-01
H    1.1239042985008698E+01    8.7165370434878326E+00    3.5728086600283271E-01
H    1.6086257073809261E+01    4.3770341199522678E+00    1.7446155323432954E+01
H    1.5645373015515800E+01    5.4637005930507856E+00    1.6209261652150964E+01
H    1.9024109690115832E+01    2.8570718791325018E+00    1.3423069801093934E+01
H    1.8838220325502931E+01    1.2110689077055987E+00    1.3554079906390390E+01
H    4.4243121690398883E+00    6.8917608538942527E+00    1.7419947439360609E+01
H    5.7395867240628133E+00    5.9680002975227655E+00    1.6932325175943912E+01
H    6.7823203764546278E+00    5.1209257517252282E-01    1.1293213642311819E+01
H    7.2065089442685784E+00    7.6939146205628661E-01    9.7476781637408312E+00
H    3.7811791070306571E+00    1.4874538025533802E+01    6.2717837708164597E+00
H    3.2550225611784902E+00    1.5464722410834352E+01    4.8485902063061221E+00
H    6.8354478221222434E+00    8.9875154429583084E+00    1.2411103229780991E+01
H    7.9938544831638270E+00    1.0270272360457906E+01    1.2485760173067629E+01
H    1.5360160183789304E+01    2.1516160675901363E+00    9.1847446508334443E+00
H    1.4800537006341818E+01    2.6775169827098670E+00    7.7527389014012291E+00
H    1.4870540292008533E+01    1.9045873656080978E+01    1.3959350253424605E+01
H    1.6034855618388789E+01    1.9886510113619256E+01    1.3341626047873458E+01
H    1.0986252988781741E+01    1.1900574885755596E+01    7.9151135446209677E+00
H    1.1960401628134655E+01    1.1862423335362886E+01    9.2398429745199930E+00
H    1.0040659554320255E+01    1.6617846721448519E+01    3.7242753163846052E+00
H    1.0069616014791670E+01    1.6994100071493012E+01    5.3101030036231247E+00
H    2.0999702029336738E+00    6.6055622824480915E+00    1.9151108172539029E+01
H    1.1379337617016387E+00    7.8349743587850629E+00    1.9285942251504814E+01
H    9.3305590943452668E+00    6.9330961720730526E+00    1.4244913773559354E+01
H    8.5074770239821529E+00    8.4652100140742217E+00    1.3880846275751068E+01
H    7.9482742653552325E+00    4.6810026416719669E-01    1.4169833180193612E+01
H    6.3653441586966242E+00    1.0473777856571120E-01    1.3976877845341116E+01
H    1.1374453054322572E+01    7.7422679008869695E+00    1.1400865586306120E+01
H    1.0822883985547623E+01    7.9656396529424010E+00    9.8561468017635256E+00
H    1.3009508850510969E+01    1.2800960326714383E+01    7.9889100233157728E-01
H    1.1967877627895387E+01    1.1514380883672333E+01    8.0114268195008909E-01
H    9.0936173373384168E+00    4.4591648191459887E-01    4.5919894912428472E+00
H    1.0439979793566797E+01    1.2286697232933590E+00    5.1491424455025046E+00
H    2.3118143692368931E+00    1.9618384704720036E+01    3.5458360348533238E+00
H    8.3579176954487711E-01    2.0207448314874430E+01    4.0206473078204823E+00
H    7.3445695758167240E+00    2.2051217831890892E+00    1.5230652430546469E+01
H    8.1406721806477318E+00    3.0890257447851290E+00    1.6240834690355861E+01
H    7.9633191744271139E+00    1.2313017901562320E+01    1.2079900367791478E+01
H    9.3937582002678628E+00    1.1522068260349373E+01    1.1687721229389146E+01
H    1.0841013632507874E+01    1.0319603571387299E+01   -7.0782289551132083E-01
H    9.6934922112760837E+00    1.0408111941172658E+01    5.5996664823226849E-01
H    2.4437410730615809E+00    1.0259790797892988E+01    9.8750588927362344E+00
H    3.3299412306917042E+00    1.0950179080014532E+01    8.6773186468476258E+00
H    6.5958565635884785E+00    1.3421802212204108E+01    1.7201733408831416E+01